Gurobi Optimizer version 10.0.3 build v10.0.3rc0 (win64)

CPU model: 13th Gen Intel(R) Core(TM) i7-13700T, instruction set [SSE2|AVX|AVX2]
Thread count: 16 physical cores, 24 logical processors, using up to 24 threads

Optimize a model with 114215 rows, 170279 columns and 331095 nonzeros
Model fingerprint: 0x3b4ec3de
Variable types: 0 continuous, 170279 integer (36900 binary)
Coefficient statistics:
  Matrix range     [1e+00, 1e+00]
  Objective range  [6e+00, 3e+02]
  Bounds range     [1e+00, 1e+00]
  RHS range        [1e+00, 6e+02]
Presolve removed 114215 rows and 170279 columns
Presolve time: 0.11s
Presolve: All rows and columns removed

Explored 0 nodes (0 simplex iterations) in 0.14 seconds (0.18 work units)
Thread count was 1 (of 24 available processors)

Solution count 1: 59786.8 

Optimal solution found (tolerance 1.00e-04)
Best objective 5.978682000000e+04, best bound 5.978682000000e+04, gap 0.0000%
Valor da função objetivo:  59786.82000000001

Tempo para criar o modelo:  2.6068685054779053
